benchmarks_vrp/CMT12/min_c/CMT12_4.vrp
NAME: CMT12_4
TYPE: CVRP
COMMENT: 819.56 - Cluster Nr.4
DIMENSION: 9
CAPACITY: 200
EDGE_WEIGHT_TYPE: EUC_2D
NODE_COORD_TYPE: TWOD_COORDS
NODE_COORD_SECTION: 
4 15 75
8 18 75
6 22 75
2 40 50
3 25 85
1 22 85
5 20 80
7 20 85
9 15 80
DEPOT_SECTION: 
2
-1
DEMAND_SECTION: 
3 20
5 40
1 10
4 20
7 40
6 30
9 10
2 0
8 20
EOF
