benchmarks_vrp/CMT12/min_c/CMT12_4.tour
NAME: CMT12_4 solution
TYPE: TOUR
TOUR_SECTION:
2 3 1 7 5 9 4 8 6 -1
-1
EOF